p cnf 412 698
27 -66 -35 76 0
27 -66 -35 -76 0
-37 -75 -70 77 0
-37 -75 -70 -77 0
8 -33 56 78 0
8 -33 56 -78 0
35 7 43 79 0
35 7 43 -79 0
27 -71 -20 80 0
27 -71 -20 -80 0
-63 37 -5 81 0
-63 37 -5 -81 0
31 -4 -11 82 0
31 -4 -11 -82 0
-20 -59 16 83 0
-20 -59 16 -83 0
-29 -18 19 84 0
-29 -18 19 -84 0
-30 74 -17 85 0
-30 74 -17 -85 0
20 23 24 86 0
20 23 24 -86 0
73 -48 31 87 0
73 -48 31 -87 0
67 -17 8 88 0
67 -17 8 -88 0
-45 -69 -40 89 0
-45 -69 -40 -89 0
-70 -38 -2 90 0
-70 -38 -2 -90 0
64 20 -13 91 0
64 20 -13 -91 0
11 9 71 92 0
11 9 71 -92 0
11 -22 -69 93 0
11 -22 -69 -93 0
-38 9 -2 94 0
-38 9 -2 -94 0
44 39 -64 95 0
44 39 -64 -95 0
1 56 65 96 0
1 56 65 -96 0
-23 26 24 97 0
-23 26 24 -97 0
-52 53 -21 98 0
-52 53 -21 -98 0
32 -25 26 99 0
32 -25 26 -99 0
20 -41 66 100 0
20 -41 66 -100 0
-60 -54 8 101 0
-60 -54 8 -101 0
3 -14 50 102 0
3 -14 50 -102 0
-54 31 -58 103 0
-54 31 -58 -103 0
62 56 24 104 0
62 56 24 -104 0
41 -33 -62 105 0
41 -33 -62 -105 0
-58 26 17 106 0
-58 26 17 -106 0
-15 4 21 107 0
-15 4 21 -107 0
-70 8 -31 108 0
-70 8 -31 -108 0
-52 68 -36 109 0
-52 68 -36 -109 0
20 46 -7 110 0
20 46 -7 -110 0
-45 -60 -74 111 0
-45 -60 -74 -111 0
70 -65 2 112 0
70 -65 2 -112 0
-16 48 -39 113 0
-16 48 -39 -113 0
-27 -1 -38 114 0
-27 -1 -38 -114 0
-35 20 15 115 0
-35 20 15 -115 0
14 -71 -2 116 0
14 -71 -2 -116 0
11 -52 41 117 0
11 -52 41 -117 0
44 -7 67 118 0
44 -7 67 -118 0
52 -4 18 119 0
52 -4 18 -119 0
-58 -25 -38 120 0
-58 -25 -38 -120 0
14 5 -59 121 0
14 5 -59 -121 0
67 -27 17 122 0
67 -27 17 -122 0
-52 7 -15 123 0
-52 7 -15 -123 0
61 66 -71 124 0
61 66 -71 -124 0
-21 -64 10 125 0
-21 -64 10 -125 0
46 75 6 126 0
46 75 6 -126 0
71 -6 49 127 0
71 -6 49 -127 0
20 -15 19 128 0
20 -15 19 -128 0
26 -44 24 129 0
26 -44 24 -129 0
7 -67 17 130 0
7 -67 17 -130 0
17 -20 2 131 0
17 -20 2 -131 0
44 -45 -21 132 0
44 -45 -21 -132 0
-29 2 -73 133 0
-29 2 -73 -133 0
5 62 -25 134 0
5 62 -25 -134 0
-57 14 62 135 0
-57 14 62 -135 0
75 -47 56 136 0
75 -47 56 -136 0
16 -36 -74 137 0
16 -36 -74 -137 0
21 -6 57 138 0
21 -6 57 -138 0
74 58 4 139 0
74 58 4 -139 0
19 -66 -25 140 0
19 -66 -25 -140 0
42 -63 26 141 0
42 -63 26 -141 0
-52 -5 54 142 0
-52 -5 54 -142 0
31 62 37 143 0
31 62 37 -143 0
29 3 71 144 0
29 3 71 -144 0
-43 -45 -72 145 0
-43 -45 -72 -145 0
-47 -17 48 146 0
-47 -17 48 -146 0
-15 41 69 147 0
-15 41 69 -147 0
20 -68 -61 148 0
20 -68 -61 -148 0
60 75 -70 149 0
60 75 -70 -149 0
-60 -71 52 150 0
-60 -71 52 -150 0
62 -29 20 151 0
62 -29 20 -151 0
39 30 -28 152 0
39 30 -28 -152 0
47 30 37 153 0
47 30 37 -153 0
63 -26 30 154 0
63 -26 30 -154 0
-64 48 26 155 0
-64 48 26 -155 0
63 5 35 156 0
63 5 35 -156 0
-42 67 54 157 0
-42 67 54 -157 0
-45 -66 -7 158 0
-45 -66 -7 -158 0
-57 -22 72 159 0
-57 -22 72 -159 0
51 -46 -52 160 0
51 -46 -52 -160 0
4 68 -18 161 0
4 68 -18 -161 0
-52 12 20 162 0
-52 12 20 -162 0
16 22 -4 163 0
16 22 -4 -163 0
-64 -73 21 164 0
-64 -73 21 -164 0
-13 -34 -65 165 0
-13 -34 -65 -165 0
-48 -53 -45 166 0
-48 -53 -45 -166 0
-31 40 2 167 0
-31 40 2 -167 0
9 -25 -54 168 0
9 -25 -54 -168 0
12 36 -67 169 0
12 36 -67 -169 0
-51 34 -9 170 0
-51 34 -9 -170 0
-17 -70 35 171 0
-17 -70 35 -171 0
-51 -15 -61 172 0
-51 -15 -61 -172 0
-10 73 -20 173 0
-10 73 -20 -173 0
-57 -21 -27 174 0
-57 -21 -27 -174 0
23 -28 6 175 0
23 -28 6 -175 0
-13 -9 24 176 0
-13 -9 24 -176 0
-69 45 23 177 0
-69 45 23 -177 0
-50 31 9 178 0
-50 31 9 -178 0
62 -1 39 179 0
62 -1 39 -179 0
-61 71 44 180 0
-61 71 44 -180 0
-20 39 -44 181 0
-20 39 -44 -181 0
-51 -4 9 182 0
-51 -4 9 -182 0
10 33 61 183 0
10 33 61 -183 0
37 13 -5 184 0
37 13 -5 -184 0
-17 11 -49 185 0
-17 11 -49 -185 0
-21 -22 -39 186 0
-21 -22 -39 -186 0
28 -41 52 187 0
28 -41 52 -187 0
-66 -49 67 188 0
-66 -49 67 -188 0
-56 29 -32 189 0
-56 29 -32 -189 0
39 47 -68 190 0
39 47 -68 -190 0
-13 -52 17 191 0
-13 -52 17 -191 0
25 69 47 192 0
25 69 47 -192 0
36 -20 -58 193 0
36 -20 -58 -193 0
46 52 3 194 0
46 52 3 -194 0
-60 1 4 195 0
-60 1 4 -195 0
-47 26 -12 196 0
-47 26 -12 -196 0
-69 26 47 197 0
-69 26 47 -197 0
49 62 20 198 0
49 62 20 -198 0
7 -60 67 199 0
7 -60 67 -199 0
-42 47 -29 200 0
-42 47 -29 -200 0
5 -70 -67 201 0
5 -70 -67 -201 0
-68 51 -17 202 0
-68 51 -17 -202 0
-39 64 -30 203 0
-39 64 -30 -203 0
-74 27 29 204 0
-74 27 29 -204 0
-18 -2 61 205 0
-18 -2 61 -205 0
13 -51 -4 206 0
13 -51 -4 -206 0
71 59 -37 207 0
71 59 -37 -207 0
56 -62 -39 208 0
56 -62 -39 -208 0
54 44 -11 209 0
54 44 -11 -209 0
22 51 48 210 0
22 51 48 -210 0
17 -35 -70 211 0
17 -35 -70 -211 0
-6 -33 -44 212 0
-6 -33 -44 -212 0
-18 26 52 213 0
-18 26 52 -213 0
-41 14 64 214 0
-41 14 64 -214 0
-22 -42 73 215 0
-22 -42 73 -215 0
13 66 55 216 0
13 66 55 -216 0
66 -16 50 217 0
66 -16 50 -217 0
25 -75 45 218 0
25 -75 45 -218 0
22 -21 -19 219 0
22 -21 -19 -219 0
33 17 -6 220 0
33 17 -6 -220 0
51 23 -45 221 0
51 23 -45 -221 0
48 -20 -71 222 0
48 -20 -71 -222 0
42 3 53 223 0
42 3 53 -223 0
17 24 -54 224 0
17 24 -54 -224 0
75 66 67 225 0
75 66 67 -225 0
60 72 -24 226 0
60 72 -24 -226 0
10 74 -72 227 0
10 74 -72 -227 0
60 -63 -52 228 0
60 -63 -52 -228 0
-70 -16 4 229 0
-70 -16 4 -229 0
24 -51 -29 230 0
24 -51 -29 -230 0
-16 -41 -46 231 0
-16 -41 -46 -231 0
17 5 70 232 0
17 5 70 -232 0
-64 70 3 233 0
-64 70 3 -233 0
20 27 -17 234 0
20 27 -17 -234 0
60 -24 45 235 0
60 -24 45 -235 0
62 54 -66 236 0
62 54 -66 -236 0
29 -35 66 237 0
29 -35 66 -237 0
-39 37 71 238 0
-39 37 71 -238 0
-42 -22 -54 239 0
-42 -22 -54 -239 0
52 -29 -3 240 0
52 -29 -3 -240 0
46 -28 19 241 0
46 -28 19 -241 0
23 14 -72 242 0
23 14 -72 -242 0
14 -1 7 243 0
14 -1 7 -243 0
37 -8 -29 244 0
37 -8 -29 -244 0
-70 -42 -27 245 0
-70 -42 -27 -245 0
-36 -33 21 246 0
-36 -33 21 -246 0
15 17 -19 247 0
15 17 -19 -247 0
-56 -43 57 248 0
-56 -43 57 -248 0
70 14 30 249 0
70 14 30 -249 0
-22 24 -62 250 0
-22 24 -62 -250 0
-40 56 -6 251 0
-40 56 -6 -251 0
66 -50 -16 252 0
66 -50 -16 -252 0
-66 41 -12 253 0
-66 41 -12 -253 0
70 -22 2 254 0
70 -22 2 -254 0
44 -67 -54 255 0
44 -67 -54 -255 0
3 -5 54 256 0
3 -5 54 -256 0
9 -55 -62 257 0
9 -55 -62 -257 0
69 55 -13 258 0
69 55 -13 -258 0
-69 -22 62 259 0
-69 -22 62 -259 0
27 -13 -25 260 0
27 -13 -25 -260 0
-4 -45 -68 261 0
-4 -45 -68 -261 0
-70 61 38 262 0
-70 61 38 -262 0
-28 3 7 263 0
-28 3 7 -263 0
-6 -2 55 264 0
-6 -2 55 -264 0
-25 23 37 265 0
-25 23 37 -265 0
37 32 49 266 0
37 32 49 -266 0
-12 7 -49 267 0
-12 7 -49 -267 0
-16 24 -6 268 0
-16 24 -6 -268 0
-62 33 -19 269 0
-62 33 -19 -269 0
-3 53 5 270 0
-3 53 5 -270 0
-12 -37 57 271 0
-12 -37 57 -271 0
52 -56 -19 272 0
52 -56 -19 -272 0
25 -60 64 273 0
25 -60 64 -273 0
70 27 53 274 0
70 27 53 -274 0
-55 -7 -60 275 0
-55 -7 -60 -275 0
-67 69 -26 276 0
-67 69 -26 -276 0
56 11 -75 277 0
56 11 -75 -277 0
61 -9 -28 278 0
61 -9 -28 -278 0
10 1 26 279 0
10 1 26 -279 0
-2 -12 17 280 0
-2 -12 17 -280 0
53 62 31 281 0
53 62 31 -281 0
7 -32 11 282 0
7 -32 11 -282 0
-46 -53 45 283 0
-46 -53 45 -283 0
-46 3 20 284 0
-46 3 20 -284 0
-29 26 37 285 0
-29 26 37 -285 0
50 63 17 286 0
50 63 17 -286 0
-36 20 -69 287 0
-36 20 -69 -287 0
-7 -72 38 288 0
-7 -72 38 -288 0
70 41 -33 289 0
70 41 -33 -289 0
-38 65 8 290 0
-38 65 8 -290 0
-30 9 7 291 0
-30 9 7 -291 0
8 50 -40 292 0
8 50 -40 -292 0
61 28 -62 293 0
61 28 -62 -293 0
54 73 -21 294 0
54 73 -21 -294 0
-68 -50 47 295 0
-68 -50 47 -295 0
18 -3 14 296 0
18 -3 14 -296 0
43 -56 2 297 0
43 -56 2 -297 0
-72 -43 -51 298 0
-72 -43 -51 -298 0
-39 -44 -53 299 0
-39 -44 -53 -299 0
42 -47 39 300 0
42 -47 39 -300 0
20 63 -15 301 0
20 63 -15 -301 0
-61 -54 44 302 0
-61 -54 44 -302 0
-11 -58 -67 303 0
-11 -58 -67 -303 0
41 -4 26 304 0
41 -4 26 -304 0
-7 -29 52 305 0
-7 -29 52 -305 0
-57 62 11 306 0
-57 62 11 -306 0
60 -6 -75 307 0
60 -6 -75 -307 0
-53 -3 42 308 0
-53 -3 42 -308 0
-27 -29 -10 309 0
-27 -29 -10 -309 0
58 53 -26 310 0
58 53 -26 -310 0
-57 5 -56 311 0
-57 5 -56 -311 0
13 60 -6 312 0
13 60 -6 -312 0
-72 64 -1 313 0
-72 64 -1 -313 0
-45 59 -18 314 0
-45 59 -18 -314 0
52 -19 -43 315 0
52 -19 -43 -315 0
-71 34 -69 316 0
-71 34 -69 -316 0
-51 -38 -54 317 0
-51 -38 -54 -317 0
-54 46 55 318 0
-54 46 55 -318 0
-43 54 71 319 0
-43 54 71 -319 0
50 9 17 320 0
50 9 17 -320 0
-7 61 -1 321 0
-7 61 -1 -321 0
33 -48 -13 322 0
33 -48 -13 -322 0
67 17 45 323 0
67 17 45 -323 0
54 -25 -73 324 0
54 -25 -73 -324 0
19 -31 -64 325 0
19 -31 -64 -325 0
36 -43 -71 326 0
36 -43 -71 -326 0
-50 -26 -38 327 0
-50 -26 -38 -327 0
54 -39 -17 328 0
54 -39 -17 -328 0
35 18 -70 329 0
35 18 -70 -329 0
-4 47 -6 330 0
-4 47 -6 -330 0
-62 -38 31 331 0
-62 -38 31 -331 0
46 30 34 332 0
46 30 34 -332 0
8 71 44 333 0
8 71 44 -333 0
-71 53 -25 334 0
-71 53 -25 -334 0
-41 13 25 335 0
-41 13 25 -335 0
-35 -65 -63 336 0
-35 -65 -63 -336 0
74 17 72 337 0
74 17 72 -337 0
38 -33 9 338 0
38 -33 9 -338 0
-14 -52 5 339 0
-14 -52 5 -339 0
-17 -8 26 340 0
-17 -8 26 -340 0
-66 14 -19 341 0
-66 14 -19 -341 0
21 3 6 342 0
21 3 6 -342 0
-30 72 -63 343 0
-30 72 -63 -343 0
-66 -17 -22 344 0
-66 -17 -22 -344 0
9 72 -71 345 0
9 72 -71 -345 0
64 -28 -7 346 0
64 -28 -7 -346 0
-26 69 2 347 0
-26 69 2 -347 0
73 24 -20 348 0
73 24 -20 -348 0
27 43 -11 349 0
27 43 -11 -349 0
-31 -19 -70 350 0
-31 -19 -70 -350 0
-53 9 33 351 0
-53 9 33 -351 0
-55 40 -18 352 0
-55 40 -18 -352 0
14 -4 70 353 0
14 -4 70 -353 0
23 66 64 354 0
23 66 64 -354 0
32 43 30 355 0
32 43 30 -355 0
71 -9 19 356 0
71 -9 19 -356 0
-52 48 73 357 0
-52 48 73 -357 0
41 42 -9 358 0
41 42 -9 -358 0
-56 -23 -39 359 0
-56 -23 -39 -359 0
56 -13 -19 360 0
56 -13 -19 -360 0
-21 -35 -60 361 0
-21 -35 -60 -361 0
-73 39 -25 362 0
-73 39 -25 -362 0
75 74 20 363 0
75 74 20 -363 0
56 -15 43 364 0
56 -15 43 -364 0
71 -39 -36 365 0
71 -39 -36 -365 0
-64 69 35 366 0
-64 69 35 -366 0
-26 31 61 367 0
-26 31 61 -367 0
-27 25 -17 368 0
-27 25 -17 -368 0
66 13 -65 369 0
66 13 -65 -369 0
56 -27 -11 370 0
56 -27 -11 -370 0
-16 30 53 371 0
-16 30 53 -371 0
-72 28 -42 372 0
-72 28 -42 -372 0
75 -29 -17 373 0
75 -29 -17 -373 0
-67 65 61 374 0
-67 65 61 -374 0
-29 4 45 375 0
-29 4 45 -375 0
24 36 -39 376 0
24 36 -39 -376 0
-13 -8 -70 377 0
-13 -8 -70 -377 0
-45 64 24 378 0
-45 64 24 -378 0
35 -72 14 379 0
35 -72 14 -379 0
38 -6 -40 380 0
38 -6 -40 -380 0
-17 -69 21 381 0
-17 -69 21 -381 0
22 -7 39 382 0
22 -7 39 -382 0
12 30 15 383 0
12 30 15 -383 0
-59 -51 -16 384 0
-59 -51 -16 -384 0
-33 -75 -73 385 0
-33 -75 -73 -385 0
56 39 3 386 0
56 39 3 -386 0
-57 41 72 387 0
-57 41 72 -387 0
-9 -56 -39 388 0
-9 -56 -39 -388 0
27 -47 -74 389 0
27 -47 -74 -389 0
-56 -75 66 390 0
-56 -75 66 -390 0
35 -20 74 391 0
35 -20 74 -391 0
-71 37 72 392 0
-71 37 72 -392 0
-16 43 -3 393 0
-16 43 -3 -393 0
-37 45 35 394 0
-37 45 35 -394 0
41 -11 -18 395 0
41 -11 -18 -395 0
54 -70 52 396 0
54 -70 52 -396 0
-12 5 4 397 0
-12 5 4 -397 0
13 30 73 398 0
13 30 73 -398 0
-60 73 69 399 0
-60 73 69 -399 0
11 -20 38 400 0
11 -20 38 -400 0
401 402 403 404 0
401 402 403 -404 0
401 402 -403 404 0
401 402 -403 -404 0
401 -402 403 404 0
401 -402 403 -404 0
401 -402 -403 404 0
401 -402 -403 -404 0
-401 402 403 404 0
-401 402 403 -404 0
-401 402 -403 404 0
-401 402 -403 -404 0
-401 -402 403 404 0
-401 -402 403 -404 0
-401 -402 -403 404 0
-401 -402 -403 -404 0
405 406 407 408 0
405 406 407 -408 0
405 406 -407 408 0
405 406 -407 -408 0
405 -406 407 408 0
405 -406 407 -408 0
405 -406 -407 408 0
405 -406 -407 -408 0
-405 406 407 408 0
-405 406 407 -408 0
-405 406 -407 408 0
-405 406 -407 -408 0
-405 -406 407 408 0
-405 -406 407 -408 0
-405 -406 -407 408 0
-405 -406 -407 -408 0
409 410 411 412 0
409 410 411 -412 0
409 410 -411 412 0
409 410 -411 -412 0
409 -410 411 412 0
409 -410 411 -412 0
409 -410 -411 412 0
409 -410 -411 -412 0
-409 410 411 412 0
-409 410 411 -412 0
-409 410 -411 412 0
-409 410 -411 -412 0
-409 -410 411 412 0
-409 -410 411 -412 0
-409 -410 -411 412 0
-409 -410 -411 -412 0
